c Standarized MaxSat Instance
c{
c "sha1sum": "55a232c6104ddd6741c604b842a420bbfb6957a6",
c "nvars": 40,
c "ncls": 1150,
c "nhards": 0,
c "nhard_len_stats":
c    { "min": 0, "max": 0, "ave": 0.00,
c      "stddev": 0.00 },
c "nsofts": 1150,
c "nsoft_len_stats":
c    { "min": 2, "max": 2, "ave": 2.00,
c      "stddev": 0.00 },
c "nsoft_wts": 10,
c "soft_wt_stats":
c    { "min": 1, "max": 10, "ave": 5.64,
c      "stddev": 2.81 }
c}
c------------------------------------------------------------
c File:  johnson16-2-4.clq
c
c Source: Panos Pardalos pardalos@math.ufl.edu
c
c Reference: Johnson graph: johnsona-b-c is generated by
c            binary vectors of length a and weight b, with
c            two vertices adjacent if the hamming distance
c            between them is at least d.
c
p wcnf 40 1150 6483
9 1 4 0
9 -1 -4 0
4 1 5 0
4 -1 -5 0
8 1 7 0
8 -1 -7 0
8 1 9 0
8 -1 -9 0
10 1 10 0
10 -1 -10 0
2 1 11 0
2 -1 -11 0
4 1 12 0
4 -1 -12 0
8 1 14 0
8 -1 -14 0
3 1 15 0
3 -1 -15 0
6 1 17 0
6 -1 -17 0
5 1 18 0
5 -1 -18 0
7 1 19 0
7 -1 -19 0
4 1 20 0
4 -1 -20 0
6 1 21 0
6 -1 -21 0
10 1 22 0
10 -1 -22 0
10 1 24 0
10 -1 -24 0
7 1 25 0
7 -1 -25 0
8 1 26 0
8 -1 -26 0
2 1 28 0
2 -1 -28 0
7 1 29 0
7 -1 -29 0
1 1 30 0
1 -1 -30 0
3 1 31 0
3 -1 -31 0
2 1 32 0
2 -1 -32 0
9 1 33 0
9 -1 -33 0
2 1 34 0
2 -1 -34 0
5 1 35 0
5 -1 -35 0
2 1 37 0
2 -1 -37 0
2 1 38 0
2 -1 -38 0
10 1 39 0
10 -1 -39 0
3 1 40 0
3 -1 -40 0
6 2 5 0
6 -2 -5 0
9 2 10 0
9 -2 -10 0
7 2 11 0
7 -2 -11 0
3 2 12 0
3 -2 -12 0
7 2 15 0
7 -2 -15 0
6 2 18 0
6 -2 -18 0
5 2 19 0
5 -2 -19 0
10 2 20 0
10 -2 -20 0
3 2 21 0
3 -2 -21 0
8 2 22 0
8 -2 -22 0
6 2 25 0
6 -2 -25 0
8 2 26 0
8 -2 -26 0
5 2 29 0
5 -2 -29 0
9 2 30 0
9 -2 -30 0
3 2 31 0
3 -2 -31 0
4 2 32 0
4 -2 -32 0
9 2 33 0
9 -2 -33 0
10 2 34 0
10 -2 -34 0
1 2 35 0
1 -2 -35 0
10 2 38 0
10 -2 -38 0
6 2 39 0
6 -2 -39 0
1 2 40 0
1 -2 -40 0
2 3 5 0
2 -3 -5 0
7 3 7 0
7 -3 -7 0
9 3 9 0
9 -3 -9 0
4 3 10 0
4 -3 -10 0
1 3 11 0
1 -3 -11 0
1 3 12 0
1 -3 -12 0
5 3 14 0
5 -3 -14 0
1 3 15 0
1 -3 -15 0
3 3 17 0
3 -3 -17 0
10 3 18 0
10 -3 -18 0
10 3 19 0
10 -3 -19 0
9 3 20 0
9 -3 -20 0
3 3 21 0
3 -3 -21 0
6 3 22 0
6 -3 -22 0
4 3 24 0
4 -3 -24 0
8 3 25 0
8 -3 -25 0
6 3 26 0
6 -3 -26 0
7 3 28 0
7 -3 -28 0
6 3 29 0
6 -3 -29 0
1 3 30 0
1 -3 -30 0
5 3 31 0
5 -3 -31 0
10 3 32 0
10 -3 -32 0
10 3 33 0
10 -3 -33 0
8 3 34 0
8 -3 -34 0
3 3 35 0
3 -3 -35 0
8 3 37 0
8 -3 -37 0
7 3 38 0
7 -3 -38 0
4 3 39 0
4 -3 -39 0
7 3 40 0
7 -3 -40 0
2 4 5 0
2 -4 -5 0
5 4 6 0
5 -4 -6 0
9 4 8 0
9 -4 -8 0
9 4 10 0
9 -4 -10 0
4 4 11 0
4 -4 -11 0
3 4 12 0
3 -4 -12 0
9 4 13 0
9 -4 -13 0
4 4 15 0
4 -4 -15 0
7 4 16 0
7 -4 -16 0
10 4 18 0
10 -4 -18 0
6 4 19 0
6 -4 -19 0
7 4 20 0
7 -4 -20 0
9 4 21 0
9 -4 -21 0
5 4 22 0
5 -4 -22 0
10 4 23 0
10 -4 -23 0
4 4 25 0
4 -4 -25 0
9 4 26 0
9 -4 -26 0
7 4 27 0
7 -4 -27 0
10 4 29 0
10 -4 -29 0
5 4 30 0
5 -4 -30 0
3 4 31 0
3 -4 -31 0
10 4 32 0
10 -4 -32 0
10 4 33 0
10 -4 -33 0
2 4 34 0
2 -4 -34 0
9 4 35 0
9 -4 -35 0
7 4 36 0
7 -4 -36 0
5 4 38 0
5 -4 -38 0
7 4 39 0
7 -4 -39 0
3 4 40 0
3 -4 -40 0
8 5 6 0
8 -5 -6 0
4 5 7 0
4 -5 -7 0
5 5 8 0
5 -5 -8 0
3 5 9 0
3 -5 -9 0
2 5 10 0
2 -5 -10 0
3 5 13 0
3 -5 -13 0
6 5 14 0
6 -5 -14 0
5 5 15 0
5 -5 -15 0
2 5 16 0
2 -5 -16 0
10 5 17 0
10 -5 -17 0
2 5 18 0
2 -5 -18 0
2 5 19 0
2 -5 -19 0
5 5 22 0
5 -5 -22 0
8 5 23 0
8 -5 -23 0
10 5 24 0
10 -5 -24 0
10 5 25 0
10 -5 -25 0
7 5 26 0
7 -5 -26 0
4 5 27 0
4 -5 -27 0
8 5 28 0
8 -5 -28 0
4 5 29 0
4 -5 -29 0
3 5 30 0
3 -5 -30 0
3 5 31 0
3 -5 -31 0
6 5 34 0
6 -5 -34 0
3 5 35 0
3 -5 -35 0
2 5 36 0
2 -5 -36 0
8 5 37 0
8 -5 -37 0
2 5 38 0
2 -5 -38 0
8 5 39 0
8 -5 -39 0
2 5 40 0
2 -5 -40 0
8 6 9 0
8 -6 -9 0
1 6 11 0
1 -6 -11 0
10 6 12 0
10 -6 -12 0
1 6 14 0
1 -6 -14 0
6 6 17 0
6 -6 -17 0
2 6 19 0
2 -6 -19 0
3 6 20 0
3 -6 -20 0
8 6 21 0
8 -6 -21 0
8 6 22 0
8 -6 -22 0
7 6 24 0
7 -6 -24 0
10 6 26 0
10 -6 -26 0
7 6 28 0
7 -6 -28 0
8 6 30 0
8 -6 -30 0
1 6 31 0
1 -6 -31 0
2 6 32 0
2 -6 -32 0
6 6 33 0
6 -6 -33 0
1 6 34 0
1 -6 -34 0
1 6 35 0
1 -6 -35 0
3 6 37 0
3 -6 -37 0
5 6 39 0
5 -6 -39 0
9 6 40 0
9 -6 -40 0
6 7 8 0
6 -7 -8 0
8 7 11 0
8 -7 -11 0
1 7 12 0
1 -7 -12 0
2 7 13 0
2 -7 -13 0
10 7 16 0
10 -7 -16 0
3 7 19 0
3 -7 -19 0
9 7 20 0
9 -7 -20 0
2 7 21 0
2 -7 -21 0
10 7 22 0
10 -7 -22 0
1 7 23 0
1 -7 -23 0
9 7 26 0
9 -7 -26 0
1 7 27 0
1 -7 -27 0
1 7 30 0
1 -7 -30 0
10 7 31 0
10 -7 -31 0
6 7 32 0
6 -7 -32 0
2 7 33 0
2 -7 -33 0
2 7 34 0
2 -7 -34 0
4 7 35 0
4 -7 -35 0
10 7 36 0
10 -7 -36 0
9 7 39 0
9 -7 -39 0
4 7 40 0
4 -7 -40 0
6 8 11 0
6 -8 -11 0
6 8 12 0
6 -8 -12 0
5 8 14 0
5 -8 -14 0
7 8 15 0
7 -8 -15 0
1 8 17 0
1 -8 -17 0
6 8 18 0
6 -8 -18 0
8 8 19 0
8 -8 -19 0
4 8 20 0
4 -8 -20 0
10 8 21 0
10 -8 -21 0
6 8 22 0
6 -8 -22 0
9 8 24 0
9 -8 -24 0
8 8 25 0
8 -8 -25 0
7 8 26 0
7 -8 -26 0
1 8 28 0
1 -8 -28 0
8 8 29 0
8 -8 -29 0
9 8 30 0
9 -8 -30 0
10 8 31 0
10 -8 -31 0
9 8 32 0
9 -8 -32 0
9 8 33 0
9 -8 -33 0
10 8 34 0
10 -8 -34 0
8 8 35 0
8 -8 -35 0
10 8 37 0
10 -8 -37 0
10 8 38 0
10 -8 -38 0
7 8 39 0
7 -8 -39 0
5 8 40 0
5 -8 -40 0
2 9 11 0
2 -9 -11 0
9 9 12 0
9 -9 -12 0
9 9 13 0
9 -9 -13 0
1 9 15 0
1 -9 -15 0
7 9 16 0
7 -9 -16 0
3 9 18 0
3 -9 -18 0
7 9 19 0
7 -9 -19 0
3 9 20 0
3 -9 -20 0
8 9 21 0
8 -9 -21 0
4 9 22 0
4 -9 -22 0
4 9 23 0
4 -9 -23 0
3 9 25 0
3 -9 -25 0
1 9 26 0
1 -9 -26 0
7 9 27 0
7 -9 -27 0
3 9 29 0
3 -9 -29 0
7 9 30 0
7 -9 -30 0
6 9 31 0
6 -9 -31 0
10 9 32 0
10 -9 -32 0
3 9 33 0
3 -9 -33 0
6 9 34 0
6 -9 -34 0
8 9 35 0
8 -9 -35 0
2 9 36 0
2 -9 -36 0
5 9 38 0
5 -9 -38 0
6 9 39 0
6 -9 -39 0
10 9 40 0
10 -9 -40 0
5 10 11 0
5 -10 -11 0
4 10 12 0
4 -10 -12 0
9 10 13 0
9 -10 -13 0
5 10 14 0
5 -10 -14 0
1 10 16 0
1 -10 -16 0
4 10 17 0
4 -10 -17 0
6 10 19 0
6 -10 -19 0
9 10 20 0
9 -10 -20 0
3 10 21 0
3 -10 -21 0
7 10 22 0
7 -10 -22 0
5 10 23 0
5 -10 -23 0
5 10 24 0
5 -10 -24 0
4 10 26 0
4 -10 -26 0
8 10 27 0
8 -10 -27 0
2 10 28 0
2 -10 -28 0
7 10 30 0
7 -10 -30 0
1 10 31 0
1 -10 -31 0
5 10 32 0
5 -10 -32 0
7 10 33 0
7 -10 -33 0
7 10 34 0
7 -10 -34 0
7 10 35 0
7 -10 -35 0
4 10 36 0
4 -10 -36 0
2 10 37 0
2 -10 -37 0
7 10 39 0
7 -10 -39 0
7 10 40 0
7 -10 -40 0
8 11 13 0
8 -11 -13 0
4 11 14 0
4 -11 -14 0
8 11 15 0
8 -11 -15 0
3 11 16 0
3 -11 -16 0
10 11 17 0
10 -11 -17 0
7 11 18 0
7 -11 -18 0
7 11 19 0
7 -11 -19 0
3 11 21 0
3 -11 -21 0
6 11 23 0
6 -11 -23 0
1 11 24 0
1 -11 -24 0
3 11 25 0
3 -11 -25 0
9 11 26 0
9 -11 -26 0
7 11 27 0
7 -11 -27 0
1 11 28 0
1 -11 -28 0
2 11 29 0
2 -11 -29 0
4 11 30 0
4 -11 -30 0
6 11 31 0
6 -11 -31 0
6 11 33 0
6 -11 -33 0
7 11 35 0
7 -11 -35 0
3 11 36 0
3 -11 -36 0
8 11 37 0
8 -11 -37 0
3 11 38 0
3 -11 -38 0
4 11 39 0
4 -11 -39 0
2 11 40 0
2 -11 -40 0
10 12 13 0
10 -12 -13 0
1 12 14 0
1 -12 -14 0
9 12 15 0
9 -12 -15 0
4 12 16 0
4 -12 -16 0
2 12 17 0
2 -12 -17 0
5 12 18 0
5 -12 -18 0
10 12 19 0
10 -12 -19 0
10 12 20 0
10 -12 -20 0
8 12 23 0
8 -12 -23 0
7 12 24 0
7 -12 -24 0
2 12 25 0
2 -12 -25 0
7 12 26 0
7 -12 -26 0
4 12 27 0
4 -12 -27 0
8 12 28 0
8 -12 -28 0
10 12 29 0
10 -12 -29 0
10 12 30 0
10 -12 -30 0
9 12 31 0
9 -12 -31 0
3 12 32 0
3 -12 -32 0
8 12 35 0
8 -12 -35 0
6 12 36 0
6 -12 -36 0
3 12 37 0
3 -12 -37 0
10 12 38 0
10 -12 -38 0
10 12 39 0
10 -12 -39 0
9 12 40 0
9 -12 -40 0
5 13 17 0
5 -13 -17 0
6 13 18 0
6 -13 -18 0
2 13 20 0
2 -13 -20 0
3 13 21 0
3 -13 -21 0
9 13 22 0
9 -13 -22 0
5 13 24 0
5 -13 -24 0
5 13 25 0
5 -13 -25 0
9 13 28 0
9 -13 -28 0
5 13 29 0
5 -13 -29 0
3 13 31 0
3 -13 -31 0
2 13 32 0
2 -13 -32 0
7 13 33 0
7 -13 -33 0
8 13 34 0
8 -13 -34 0
2 13 35 0
2 -13 -35 0
7 13 37 0
7 -13 -37 0
5 13 38 0
5 -13 -38 0
9 13 40 0
9 -13 -40 0
8 14 16 0
8 -14 -16 0
2 14 18 0
2 -14 -18 0
3 14 20 0
3 -14 -20 0
5 14 21 0
5 -14 -21 0
2 14 22 0
2 -14 -22 0
2 14 23 0
2 -14 -23 0
4 14 25 0
4 -14 -25 0
4 14 27 0
4 -14 -27 0
10 14 29 0
10 -14 -29 0
10 14 31 0
10 -14 -31 0
7 14 32 0
7 -14 -32 0
9 14 33 0
9 -14 -33 0
9 14 34 0
9 -14 -34 0
5 14 35 0
5 -14 -35 0
4 14 36 0
4 -14 -36 0
4 14 38 0
4 -14 -38 0
7 14 40 0
7 -14 -40 0
7 15 16 0
7 -15 -16 0
3 15 17 0
3 -15 -17 0
2 15 20 0
2 -15 -20 0
1 15 21 0
1 -15 -21 0
2 15 22 0
2 -15 -22 0
7 15 23 0
7 -15 -23 0
4 15 24 0
4 -15 -24 0
3 15 27 0
3 -15 -27 0
4 15 28 0
4 -15 -28 0
1 15 31 0
1 -15 -31 0
5 15 32 0
5 -15 -32 0
10 15 33 0
10 -15 -33 0
6 15 34 0
6 -15 -34 0
3 15 35 0
3 -15 -35 0
7 15 36 0
7 -15 -36 0
8 15 37 0
8 -15 -37 0
5 15 40 0
5 -15 -40 0
2 16 20 0
2 -16 -20 0
9 16 21 0
9 -16 -21 0
7 16 22 0
7 -16 -22 0
6 16 24 0
6 -16 -24 0
3 16 25 0
3 -16 -25 0
6 16 26 0
6 -16 -26 0
5 16 28 0
5 -16 -28 0
9 16 29 0
9 -16 -29 0
4 16 30 0
4 -16 -30 0
3 16 31 0
3 -16 -31 0
4 16 32 0
4 -16 -32 0
8 16 33 0
8 -16 -33 0
7 16 34 0
7 -16 -34 0
10 16 35 0
10 -16 -35 0
4 16 37 0
4 -16 -37 0
9 16 38 0
9 -16 -38 0
2 16 39 0
2 -16 -39 0
5 16 40 0
5 -16 -40 0
1 17 20 0
1 -17 -20 0
8 17 21 0
8 -17 -21 0
8 17 22 0
8 -17 -22 0
3 17 23 0
3 -17 -23 0
2 17 25 0
2 -17 -25 0
9 17 26 0
9 -17 -26 0
8 17 27 0
8 -17 -27 0
1 17 29 0
1 -17 -29 0
5 17 30 0
5 -17 -30 0
10 17 31 0
10 -17 -31 0
8 17 32 0
8 -17 -32 0
3 17 33 0
3 -17 -33 0
5 17 34 0
5 -17 -34 0
9 17 35 0
9 -17 -35 0
1 17 36 0
1 -17 -36 0
1 17 38 0
1 -17 -38 0
4 17 39 0
4 -17 -39 0
4 17 40 0
4 -17 -40 0
7 18 20 0
7 -18 -20 0
9 18 21 0
9 -18 -21 0
2 18 22 0
2 -18 -22 0
1 18 23 0
1 -18 -23 0
1 18 24 0
1 -18 -24 0
5 18 26 0
5 -18 -26 0
8 18 27 0
8 -18 -27 0
7 18 28 0
7 -18 -28 0
5 18 30 0
5 -18 -30 0
2 18 31 0
2 -18 -31 0
6 18 32 0
6 -18 -32 0
6 18 33 0
6 -18 -33 0
6 18 34 0
6 -18 -34 0
6 18 35 0
6 -18 -35 0
4 18 36 0
4 -18 -36 0
4 18 37 0
4 -18 -37 0
9 18 39 0
9 -18 -39 0
5 18 40 0
5 -18 -40 0
2 19 20 0
2 -19 -20 0
7 19 21 0
7 -19 -21 0
6 19 22 0
6 -19 -22 0
7 19 23 0
7 -19 -23 0
6 19 24 0
6 -19 -24 0
3 19 25 0
3 -19 -25 0
9 19 27 0
9 -19 -27 0
1 19 28 0
1 -19 -28 0
1 19 29 0
1 -19 -29 0
10 19 31 0
10 -19 -31 0
2 19 32 0
2 -19 -32 0
5 19 33 0
5 -19 -33 0
3 19 34 0
3 -19 -34 0
9 19 35 0
9 -19 -35 0
3 19 36 0
3 -19 -36 0
4 19 37 0
4 -19 -37 0
9 19 38 0
9 -19 -38 0
4 19 40 0
4 -19 -40 0
9 20 23 0
9 -20 -23 0
7 20 24 0
7 -20 -24 0
1 20 25 0
1 -20 -25 0
3 20 26 0
3 -20 -26 0
8 20 27 0
8 -20 -27 0
7 20 28 0
7 -20 -28 0
9 20 29 0
9 -20 -29 0
4 20 30 0
4 -20 -30 0
3 20 31 0
3 -20 -31 0
2 20 33 0
2 -20 -33 0
7 20 34 0
7 -20 -34 0
2 20 36 0
2 -20 -36 0
7 20 37 0
7 -20 -37 0
8 20 38 0
8 -20 -38 0
8 20 39 0
8 -20 -39 0
3 20 40 0
3 -20 -40 0
5 21 23 0
5 -21 -23 0
4 21 24 0
4 -21 -24 0
5 21 25 0
5 -21 -25 0
3 21 26 0
3 -21 -26 0
4 21 27 0
4 -21 -27 0
6 21 28 0
6 -21 -28 0
2 21 29 0
2 -21 -29 0
6 21 30 0
6 -21 -30 0
1 21 31 0
1 -21 -31 0
4 21 32 0
4 -21 -32 0
4 21 34 0
4 -21 -34 0
4 21 36 0
4 -21 -36 0
8 21 37 0
8 -21 -37 0
3 21 38 0
3 -21 -38 0
7 21 39 0
7 -21 -39 0
6 21 40 0
6 -21 -40 0
10 22 23 0
10 -22 -23 0
7 22 24 0
7 -22 -24 0
9 22 25 0
9 -22 -25 0
7 22 26 0
7 -22 -26 0
4 22 27 0
4 -22 -27 0
7 22 28 0
7 -22 -28 0
1 22 29 0
1 -22 -29 0
6 22 30 0
6 -22 -30 0
9 22 31 0
9 -22 -31 0
7 22 32 0
7 -22 -32 0
7 22 33 0
7 -22 -33 0
6 22 36 0
6 -22 -36 0
5 22 37 0
5 -22 -37 0
4 22 38 0
4 -22 -38 0
8 22 39 0
8 -22 -39 0
9 22 40 0
9 -22 -40 0
7 23 28 0
7 -23 -28 0
2 23 29 0
2 -23 -29 0
1 23 30 0
1 -23 -30 0
1 23 32 0
1 -23 -32 0
7 23 33 0
7 -23 -33 0
2 23 34 0
2 -23 -34 0
7 23 35 0
7 -23 -35 0
8 23 37 0
8 -23 -37 0
6 23 38 0
6 -23 -38 0
1 23 39 0
1 -23 -39 0
1 24 27 0
1 -24 -27 0
4 24 29 0
4 -24 -29 0
3 24 30 0
3 -24 -30 0
7 24 32 0
7 -24 -32 0
9 24 33 0
9 -24 -33 0
2 24 34 0
2 -24 -34 0
4 24 35 0
4 -24 -35 0
7 24 36 0
7 -24 -36 0
9 24 38 0
9 -24 -38 0
7 24 39 0
7 -24 -39 0
4 25 27 0
4 -25 -27 0
9 25 28 0
9 -25 -28 0
2 25 30 0
2 -25 -30 0
2 25 32 0
2 -25 -32 0
6 25 33 0
6 -25 -33 0
9 25 34 0
9 -25 -34 0
7 25 35 0
7 -25 -35 0
10 25 36 0
10 -25 -36 0
2 25 37 0
2 -25 -37 0
4 25 39 0
4 -25 -39 0
8 26 27 0
8 -26 -27 0
9 26 28 0
9 -26 -28 0
6 26 29 0
6 -26 -29 0
8 26 32 0
8 -26 -32 0
10 26 33 0
10 -26 -33 0
3 26 34 0
3 -26 -34 0
10 26 35 0
10 -26 -35 0
6 26 36 0
6 -26 -36 0
10 26 37 0
10 -26 -37 0
5 26 38 0
5 -26 -38 0
6 27 32 0
6 -27 -32 0
10 27 33 0
10 -27 -33 0
8 27 34 0
8 -27 -34 0
9 27 35 0
9 -27 -35 0
6 27 37 0
6 -27 -37 0
7 27 38 0
7 -27 -38 0
10 27 39 0
10 -27 -39 0
10 27 40 0
10 -27 -40 0
4 28 32 0
4 -28 -32 0
9 28 33 0
9 -28 -33 0
6 28 34 0
6 -28 -34 0
7 28 35 0
7 -28 -35 0
8 28 36 0
8 -28 -36 0
8 28 38 0
8 -28 -38 0
8 28 39 0
8 -28 -39 0
3 28 40 0
3 -28 -40 0
7 29 32 0
7 -29 -32 0
5 29 33 0
5 -29 -33 0
2 29 34 0
2 -29 -34 0
8 29 35 0
8 -29 -35 0
9 29 36 0
9 -29 -36 0
9 29 37 0
9 -29 -37 0
7 29 39 0
7 -29 -39 0
5 29 40 0
5 -29 -40 0
7 30 32 0
7 -30 -32 0
6 30 33 0
6 -30 -33 0
7 30 34 0
7 -30 -34 0
6 30 35 0
6 -30 -35 0
2 30 36 0
2 -30 -36 0
6 30 37 0
6 -30 -37 0
1 30 38 0
1 -30 -38 0
8 30 40 0
8 -30 -40 0
6 31 32 0
6 -31 -32 0
9 31 33 0
9 -31 -33 0
6 31 34 0
6 -31 -34 0
2 31 35 0
2 -31 -35 0
5 31 36 0
5 -31 -36 0
6 31 37 0
6 -31 -37 0
1 31 38 0
1 -31 -38 0
9 31 39 0
9 -31 -39 0
4 32 36 0
4 -32 -36 0
7 32 37 0
7 -32 -37 0
5 32 38 0
5 -32 -38 0
2 32 39 0
2 -32 -39 0
5 32 40 0
5 -32 -40 0
3 33 36 0
3 -33 -36 0
5 33 37 0
5 -33 -37 0
1 33 38 0
1 -33 -38 0
8 33 39 0
8 -33 -39 0
6 33 40 0
6 -33 -40 0
9 34 36 0
9 -34 -36 0
6 34 37 0
6 -34 -37 0
5 34 38 0
5 -34 -38 0
5 34 39 0
5 -34 -39 0
10 34 40 0
10 -34 -40 0
1 35 36 0
1 -35 -36 0
1 35 37 0
1 -35 -37 0
7 35 38 0
7 -35 -38 0
6 35 39 0
6 -35 -39 0
3 35 40 0
3 -35 -40 0
